% From JaCoP's nonogramRepository/data123.nin
 rows = 25;
 row_rule_len = 4;
 row_rules = array2d(1..rows, 1..row_rule_len, 
[
 0,0,0,6,
 0,0,0,8,
 0,0,0,7,
 0,0,0,7,
 0,0,0,7,
 0,0,0,7,
 0,0,0,7,
 0,0,0,6,
 0,0,0,5,
 0,0,0,5,
 0,0,0,5,
 0,0,0,5,
 0,0,0,5,
 0,0,0,4,
 0,0,0,4,
 0,0,0,3,
 0,7,3,1,
 0,0,13,2,
 0,0,15,6,
 0,4,7,5,
 0,3,7,2,
 4,5,5,2,
 0,0,15,7,
 0,0,12,4,
 0,0,0,8
]);

 cols = 25;
 col_rule_len = 4;
 col_rules = array2d(1..cols, 1..col_rule_len, 
[
 0,0,0,4,
 0,0,0,6,
 0,0,0,7,
 0,0,3,4,
 0,0,3,3,
 0,6,3,3,
 0,9,3,3,
 0,10,3,3,
 0,12,3,3,
 0,13,3,3,
 0,14,4,4,
 7,5,3,3,
 0,0,2,13,
 0,0,2,11,
 0,0,0,9,
 0,0,0,3,
 0,0,0,3,
 0,0,2,2,
 0,0,2,3,
 0,0,1,2,
 0,0,2,3,
 0,0,2,2,
 0,0,2,2,
 0,0,0,6,
 0,0,0,4
]);

